p cnf 17 52
-1 0
-2 0
-7 0
-8 0
1 -1 0
4 -3 0
6 -5 0
10 -9 0
3 -4 0
2 -2 0
12 -11 0
14 -13 0
5 -6 0
11 -12 0
7 -7 0
15 -16 0
9 -10 0
13 -14 0
16 -15 0
8 -8 0
1 4 6 0
1 4 10 0
1 6 10 0
4 6 10 0
3 2 12 0
3 2 14 0
3 12 14 0
2 12 14 0
5 11 7 0
5 11 15 0
5 7 15 0
11 7 15 0
9 13 16 0
9 13 8 0
9 16 8 0
13 16 8 0
-1 -4 -6 0
-1 -4 -10 0
-1 -6 -10 0
-4 -6 -10 0
-3 -2 -12 0
-3 -2 -14 0
-3 -12 -14 0
-2 -12 -14 0
-5 -11 -7 0
-5 -11 -15 0
-5 -7 -15 0
-11 -7 -15 0
-9 -13 -16 0
-9 -13 -8 0
-9 -16 -8 0
-13 -16 -8 0
